
Log started (V12.10.0.0) Tue Apr 20 04:27:56 2021


Problem 'asset.lp' read.
Read time = 0.01 sec. (0.72 ticks)
New value for default parallel thread count: 1
New value for time limit in seconds: 150
Version identifier: 12.10.0.0 | 2019-11-26 | 843d4de
CPXPARAM_Threads                                 1
CPXPARAM_TimeLimit                               150
Found incumbent of value 0.000000 after 0.00 sec. (0.17 ticks)
Tried aggregator 3 times.
MIP Presolve eliminated 3261 rows and 276 columns.
MIP Presolve modified 4212 coefficients.
Aggregator did 1847 substitutions.
Reduced MIP has 2141 rows, 2745 columns, and 11903 nonzeros.
Reduced MIP has 2365 binaries, 314 generals, 0 SOSs, and 0 indicators.
Presolve time = 0.03 sec. (31.87 ticks)
Probing fixed 41 vars, tightened 18 bounds.
Probing time = 0.02 sec. (16.41 ticks)
Cover probing fixed 0 vars, tightened 11 bounds.
Tried aggregator 2 times.
Detecting symmetries...
MIP Presolve eliminated 81 rows and 78 columns.
MIP Presolve modified 668 coefficients.
Aggregator did 1 substitutions.
Reduced MIP has 2059 rows, 2666 columns, and 11455 nonzeros.
Reduced MIP has 2305 binaries, 296 generals, 0 SOSs, and 0 indicators.
Presolve time = 0.02 sec. (17.82 ticks)
Probing time = 0.00 sec. (3.04 ticks)
Clique table members: 7472.
MIP emphasis: balance optimality and feasibility.
MIP search method: dynamic search.
Parallel mode: none, using 1 thread.
Root relaxation solution time = 0.06 sec. (98.64 ticks)

        Nodes                                         Cuts/
   Node  Left     Objective  IInf  Best Integer    Best Bound    ItCnt     Gap

*     0+    0                            0.0000      865.0000              --- 
      0     0      827.5000   399        0.0000      827.5000     1263     --- 
      0     0      823.8507   399        0.0000     Cuts: 260     2134     --- 
      0     0      820.8706   399        0.0000     Cuts: 614     3593     --- 
      0     0      819.6743   399        0.0000     Cuts: 614     5914     --- 
      0     0      818.8243   399        0.0000     Cuts: 614     8874     --- 
      0     0      817.9390   399        0.0000     Cuts: 614    10674     --- 
Detecting symmetries...
      0     0      817.8781   399        0.0000     Cuts: 614    11690     --- 
      0     0      817.8426   399        0.0000     Cuts: 522    12359     --- 
      0     0      816.8495   399        0.0000     Cuts: 366    13285     --- 
      0     0      816.2420   399        0.0000     Cuts: 578    14676     --- 
      0     0      815.8941   399        0.0000     Cuts: 614    15716     --- 
      0     0      815.4054   399        0.0000     Cuts: 614    16590     --- 
      0     0      813.1980   399        0.0000     Cuts: 455    17371     --- 
      0     0      813.1739   399        0.0000     Cuts: 537    17804     --- 
      0     0      813.1503   399        0.0000     Cuts: 196    18236     --- 
*     0+    0                           50.0000      813.1503              --- 
*     0+    0                           85.0000      813.1503           856.65%
*     0+    0                          215.0000      813.1503           278.21%
*     0+    0                          255.0000      813.1503           218.88%
*     0+    0                          265.0000      813.1503           206.85%
      0     0        cutoff            265.0000      813.1503    18236  206.85%
Detecting symmetries...
      0     2      813.1503   412      265.0000      813.1503    18236  206.85%
Elapsed time = 3.50 sec. (4903.68 ticks, tree = 0.01 MB, solutions = 5)
      3     5      784.5588   387      265.0000      813.1503    21581  206.85%
      5     7      812.0516   435      265.0000      813.1215    23747  206.84%
      8    10      811.3935   440      265.0000      812.0516    27255  206.43%
     14    16      811.3934   421      265.0000      812.0516    28779  206.43%
     38    30      806.3871   404      265.0000      812.0516    31431  206.43%
     45    35      781.5262   377      265.0000      812.0516    34665  206.43%
     46    36      774.6168   354      265.0000      812.0516    37291  206.43%
     60    50      758.0470   336      265.0000      812.0516    40754  206.43%
     65    55      763.1332   321      265.0000      812.0516    43810  206.43%
     80    70      737.6607   314      265.0000      812.0516    52749  206.43%
Elapsed time = 5.94 sec. (8625.26 ticks, tree = 0.10 MB, solutions = 5)
    121   107      649.1479   233      265.0000      812.0516    63475  206.43%
    203   169      809.5096   372      265.0000      812.0516    72457  206.43%
    240   198      732.6784   283      265.0000      812.0516    83851  206.43%
    288   246      648.4481   203      265.0000      812.0516    96314  206.43%
*   370+  305                          385.0000      812.0516           110.92%
*   374   304      integral     0      390.0000      812.0516    99460  108.22%
    402   332      798.8469   404      390.0000      811.7392   107144  108.14%
    430   360      770.5922   362      390.0000      811.7392   110209  108.14%
    480   410      735.4233   337      390.0000      811.7392   118405  108.14%

Performing restart 1

Repeating presolve.
Tried aggregator 2 times.
MIP Presolve modified 2790 coefficients.
Aggregator did 5 substitutions.
Reduced MIP has 2054 rows, 2661 columns, and 9563 nonzeros.
Reduced MIP has 2300 binaries, 296 generals, 0 SOSs, and 0 indicators.
Presolve time = 0.01 sec. (10.69 ticks)
Tried aggregator 1 time.
Reduced MIP has 2054 rows, 2661 columns, and 9563 nonzeros.
Reduced MIP has 2300 binaries, 296 generals, 0 SOSs, and 0 indicators.
Presolve time = 0.01 sec. (6.86 ticks)
Represolve time = 0.07 sec. (50.41 ticks)
    494     0      767.6582   464      390.0000     Cuts: 613   130257   96.84%
    494     0      755.8590   464      390.0000     Cuts: 476   132545   93.81%
    494     0      745.5350   464      390.0000     Cuts: 446   134358   91.16%
    494     0      739.5191   464      390.0000     Cuts: 316   136294   89.62%
    494     0      735.8312   464      390.0000     Cuts: 341   137362   88.67%
    494     0      732.1501   464      390.0000     Cuts: 331   139734   87.73%
*   494+    0                          405.0000      732.1501            80.78%
    494     0      729.3784   464      405.0000     Cuts: 394   141612   80.09%
    494     0      727.2328   464      405.0000     Cuts: 326   143129   79.56%
    494     0      725.4980   464      405.0000     Cuts: 313   144137   79.14%
*   494+    0                          415.0000      725.4980            74.82%
    494     0      724.6350   464      415.0000     Cuts: 240   144984   74.61%
    494     0      723.5467   464      415.0000     Cuts: 193   145594   74.35%
    494     0      723.0487   464      415.0000     Cuts: 166   146234   74.23%
    494     0      722.6943   464      415.0000     Cuts: 146   146763   74.14%
    494     0      722.2590   464      415.0000     Cuts: 150   147432   74.04%
    494     0      721.9247   464      415.0000     Cuts: 138   147928   73.96%
    494     0      721.6041   464      415.0000     Cuts: 104   148917   73.88%
    494     0      721.2114   464      415.0000     Cuts: 173   149541   73.79%
    494     0      720.9848   464      415.0000     Cuts: 140   150046   73.73%
    494     0      720.7489   464      415.0000     Cuts: 154   150599   73.67%
    494     0      720.5299   464      415.0000     Cuts: 135   151396   73.62%
    494     0      720.4514   464      415.0000     Cuts: 190   151972   73.60%
    494     0      720.3578   464      415.0000     Cuts: 133   152451   73.58%
    494     0      720.2585   464      415.0000     Cuts: 131   152721   73.56%
    494     0      720.1562   464      415.0000     Cuts: 104   153113   73.53%
    494     0      719.6506   464      415.0000     Cuts: 110   153897   73.41%
    494     0      719.3980   464      415.0000     Cuts: 172   154506   73.35%
    494     0      719.2404   464      415.0000     Cuts: 150   155060   73.31%
    494     0      719.0224   464      415.0000     Cuts: 177   155601   73.26%
    494     0      718.6186   464      415.0000     Cuts: 134   156364   73.16%
    494     0      718.4289   464      415.0000     Cuts: 175   156842   73.12%
    494     0      718.2163   464      415.0000     Cuts: 132   157311   73.06%
    494     0      718.0072   464      415.0000     Cuts: 134   157873   73.01%
    494     0      717.9745   464      415.0000     Cuts: 154   158234   73.01%
    494     0      717.9108   464      415.0000     Cuts: 128   158498   72.99%
    494     0      717.7769   464      415.0000     Cuts: 160   159045   72.96%
    494     2      717.7769   459      415.0000      717.7767   159045   72.96%
    497     5      699.1076   393      415.0000      717.0917   163482   72.79%
    499     7      700.1170   392      415.0000      716.6133   166525   72.68%
Elapsed time = 34.93 sec. (46936.86 ticks, tree = 0.05 MB, solutions = 9)
    502    10      704.8088   415      415.0000      716.6133   170443   72.68%
    505    13      710.3176   427      415.0000      716.6133   172667   72.68%
    508    16      713.5166   432      415.0000      716.6133   177380   72.68%
    512    20      701.4480   378      415.0000      716.6133   181938   72.68%
    514    22      711.6351   416      415.0000      716.6133   182708   72.68%
    520    28      709.2305   403      415.0000      716.6133   186811   72.68%
    524    32      707.3548   408      415.0000      716.6133   189880   72.68%
    530    38      700.8730   390      415.0000      716.6133   193998   72.68%
    534    42      699.2032   407      415.0000      716.6133   197936   72.68%
    540    48      697.9697   400      415.0000      716.6133   202276   72.68%
Elapsed time = 43.20 sec. (59830.66 ticks, tree = 0.45 MB, solutions = 9)
    544    52      696.9620   391      415.0000      716.6133   204830   72.68%
    552    60      691.8403   373      415.0000      716.6133   208980   72.68%
    557    65      691.2509   383      415.0000      716.6133   213735   72.68%
    564    72      684.4402   348      415.0000      716.6133   217789   72.68%
    574    82      681.5578   321      415.0000      716.6133   221574   72.68%
    581    89      670.9013   295      415.0000      716.6133   228130   72.68%
    590    96      667.0766   278      415.0000      716.6133   232903   72.68%
    595   101      663.3091   277      415.0000      716.6133   235421   72.68%
    613   119      658.6604   274      415.0000      716.6133   239286   72.68%
    650   146      701.7865   431      415.0000      716.4091   249415   72.63%
Elapsed time = 51.60 sec. (72841.65 ticks, tree = 0.87 MB, solutions = 9)
    654   150      690.1089   424      415.0000      716.4091   253120   72.63%
    661   157      672.3887   349      415.0000      716.4091   258821   72.63%
    668   164      670.5720   352      415.0000      716.4091   265158   72.63%
    674   170      678.7040   349      415.0000      716.4091   269148   72.63%
    682   177      674.0277   334      415.0000      716.4091   274594   72.63%
    693   188      658.9137   314      415.0000      716.4091   280923   72.63%
    698   193      646.5303   298      415.0000      716.4091   284103   72.63%
    710   205      653.1277   326      415.0000      716.4091   288875   72.63%
    731   226      644.7490   311      415.0000      716.4091   295542   72.63%
    744   238      606.3306   265      415.0000      716.4091   301320   72.63%
Elapsed time = 59.17 sec. (84267.62 ticks, tree = 1.00 MB, solutions = 9)
    803   286        cutoff            415.0000      716.4091   308295   72.63%
    805   286      704.9135   445      415.0000      715.5368   312551   72.42%
    810   291      688.4598   400      415.0000      715.5368   318288   72.42%
    817   298      683.5578   375      415.0000      715.5368   323555   72.42%
    828   309      675.5172   373      415.0000      715.5368   328232   72.42%
    834   315      673.7546   345      415.0000      715.5368   330189   72.42%
    855   336      664.3986   312      415.0000      715.5368   336214   72.42%
    873   354      648.9688   288      415.0000      715.5368   341855   72.42%
    896   377      709.9938   462      415.0000      713.5817   348561   71.95%
    902   383      697.9855   400      415.0000      713.5817   354740   71.95%
Elapsed time = 67.12 sec. (96316.52 ticks, tree = 1.19 MB, solutions = 9)
    915   396      685.0811   403      415.0000      713.5817   361349   71.95%
    934   415      674.0287   366      415.0000      713.5817   367391   71.95%
    969   450      644.5062   317      415.0000      713.5817   374967   71.95%
   1006   485      604.5842   247      415.0000      713.5817   380971   71.95%
   1013   487      702.9956   421      415.0000      713.5118   386001   71.93%
   1017   491      686.7189   393      415.0000      713.5118   390887   71.93%
   1026   500      679.2564   366      415.0000      713.5118   396181   71.93%
   1037   511      670.4782   355      415.0000      713.5118   401726   71.93%
   1054   527      661.2577   313      415.0000      713.5118   406760   71.93%
   1071   544      630.7067   272      415.0000      713.5118   413012   71.93%
Elapsed time = 74.56 sec. (107608.37 ticks, tree = 1.43 MB, solutions = 9)
   1109   576      702.1883   395      415.0000      712.7674   422974   71.75%
   1113   580      697.0600   396      415.0000      712.7674   429794   71.75%
   1118   585      662.7573   376      415.0000      712.7674   437459   71.75%
   1125   592      667.7006   341      415.0000      712.7674   443899   71.75%
   1132   599      663.1338   326      415.0000      712.7674   450309   71.75%
   1140   607      655.5693   307      415.0000      712.7674   457491   71.75%
   1154   621      643.1104   302      415.0000      712.7674   465040   71.75%
   1169   636      639.3126   285      415.0000      712.7674   472593   71.75%
   1190   657      628.4627   244      415.0000      712.7674   480802   71.75%
   1197   656      695.4643   392      415.0000      712.5831   490297   71.71%
Elapsed time = 81.97 sec. (118955.99 ticks, tree = 1.60 MB, solutions = 9)
   1207   666      680.7138   349      415.0000      712.5831   494699   71.71%
   1216   675      674.7734   354      415.0000      712.5831   497145   71.71%
   1234   693      651.7151   304      415.0000      712.5831   502194   71.71%
   1271   728      587.2832   184      415.0000      712.5831   509230   71.71%
   1283   734      703.6369   444      415.0000      711.0680   515272   71.34%
   1289   740      693.3442   436      415.0000      711.0680   521462   71.34%
   1299   750      683.4851   403      415.0000      711.0680   527591   71.34%
   1307   758      667.8179   305      415.0000      711.0680   533325   71.34%
   1321   772      650.7379   323      415.0000      711.0680   539680   71.34%
   1340   791      626.0212   276      415.0000      711.0680   545015   71.34%
Elapsed time = 89.40 sec. (129987.93 ticks, tree = 1.78 MB, solutions = 9)
   1414   851      694.6938   411      415.0000      710.7903   552579   71.27%
   1421   858      674.1160   359      415.0000      710.7903   557641   71.27%
   1428   865      663.8092   347      415.0000      710.7903   563419   71.27%
   1437   874      647.7357   303      415.0000      710.7903   570144   71.27%
   1458   895      628.9941   272      415.0000      710.7903   575392   71.27%
   1473   910      600.4858   279      415.0000      710.7903   581703   71.27%
*  1494+  929                          420.0000      710.7903            69.24%
   1517   954      528.2065   118      420.0000      710.7903   588842   69.24%
   1529   963      705.9430   458      420.0000      710.7851   592600   69.23%
   1534   968      696.7638   409      420.0000      710.7851   596754   69.23%
   1560   994      667.1627   365      420.0000      710.7851   616848   69.23%
Elapsed time = 98.86 sec. (144026.35 ticks, tree = 2.10 MB, solutions = 10)
   1627  1055      678.0577   382      420.0000      710.3175   638739   69.12%
   1656  1084      662.1599   347      420.0000      710.3175   665367   69.12%
   1685  1113      637.7794   297      420.0000      710.3175   695425   69.12%
   1807  1216      708.0324   438      420.0000      710.3120   727064   69.12%
   1836  1245      675.4842   350      420.0000      710.3120   750923   69.12%
   1909  1314      702.6090   423      420.0000      709.9932   781147   69.05%
   1934  1339      672.1290   347      420.0000      709.9932   802675   69.05%
   2005  1408      581.1576   259      420.0000      709.9932   830531   69.05%
   2034  1433      656.5754   338      420.0000      708.0294   846962   68.58%
   2120  1511      693.0618   450      420.0000      707.9662   868017   68.56%
Elapsed time = 125.83 sec. (184577.01 ticks, tree = 2.90 MB, solutions = 10)
   2154  1545      653.3810   355      420.0000      707.9662   890281   68.56%
   2232  1623      602.4035   279      420.0000      707.9662   909637   68.56%
   2254  1641      637.9620   352      420.0000      707.7992   931640   68.52%
Starting limited solution polishing.
   2299  1686      595.5749   265      420.0000      707.7992   959399   68.52%
   2401  1774      694.3664   421      420.0000      707.5913   984810   68.47%
   2469  1842      619.6194   252      420.0000      707.5913  1011490   68.47%
*  2494+ 1861                          430.0000      707.3103            64.49%
   2518  1887      649.1784   305      430.0000      707.3103  1030782   64.49%
   2590  1953      674.1190   383      430.0000      707.1729  1052818   64.46%
*  2594+ 1955                          435.0000      707.1729            62.57%
   2609  1972      628.5752   308      435.0000      707.1729  1065575   62.57%

GUB cover cuts applied:  155
Clique cuts applied:  96
Cover cuts applied:  36
Implied bound cuts applied:  66
Flow cuts applied:  25
Mixed integer rounding cuts applied:  268
Zero-half cuts applied:  106
Lift and project cuts applied:  30
Gomory fractional cuts applied:  6

Root node processing (before b&c):
  Real time             =    3.49 sec. (4892.14 ticks)
Sequential b&c:
  Real time             =  146.51 sec. (215470.80 ticks)
                          ------------
Total (root+branch&cut) =  150.00 sec. (220362.94 ticks)

Solution pool: 13 solutions saved.

MIP - Time limit exceeded, integer feasible:  Objective =  4.3500000000e+02
Current MIP best bound =  7.0717286570e+02 (gap = 272.173, 62.57%)
Solution time =  150.00 sec.  Iterations = 1074249  Nodes = 2631 (1993)
Deterministic time = 220362.96 ticks  (1469.07 ticks/sec)


Incumbent solution
Variable Name           Solution Value
F                           435.000000
y65                           1.000000
y161                          1.000000
y194                          1.000000
y53                           1.000000
y285                          1.000000
y142                          1.000000
y72                           1.000000
y112                          1.000000
y115                          1.000000
y124                          1.000000
y293                          1.000000
y240                          1.000000
y276                          1.000000
y284                          1.000000
y141                          1.000000
y300                          1.000000
y224                          1.000000
y81                           1.000000
y49                           1.000000
y262                          1.000000
y210                          1.000000
y178                          1.000000
y50                           1.000000
y172                          1.000000
y231                          1.000000
y23                           1.000000
y261                          1.000000
y156                          1.000000
y48                           1.000000
x281x194x1                    2.000000
x4x161x1                      1.000000
x100x49x1                     1.000000
x203x65x1                     1.000000
x203x285x1                    1.000000
x24x65x1                      1.000000
x136x124x1                    1.000000
x138x240x1                    1.000000
x118x124x2                    1.000000
x100x240x2                    1.000000
x104x285x2                    1.000000
x14x112x2                     1.000000
x136x142x2                    1.000000
x68x115x2                     2.000000
x206x276x2                    2.000000
x118x161x3                    1.000000
x121x142x3                    1.000000
x121x72x3                     1.000000
x104x81x3                     1.000000
x14x81x3                      1.000000
x24x72x3                      1.000000
x168x53x3                     1.000000
x168x293x3                    1.000000
x138x178x3                    1.000000
x65x141x1                     1.000000
x65x300x1                     1.000000
x161x49x1                     1.000000
x161x293x3                    1.000000
x194x53x1                     1.000000
x194x112x1                    1.000000
x53x224x1                     1.000000
x53x231x3                     1.000000
x285x50x1                     1.000000
x285x261x2                    1.000000
x142x284x2                    1.000000
x142x262x3                    1.000000
x72x284x3                     1.000000
x72x141x3                     1.000000
x112x261x1                    1.000000
x112x224x2                    1.000000
x115x0x2                      1.000000
x115x262x2                    1.000000
x124x50x1                     1.000000
x124x300x2                    1.000000
x293x172x3                    1.000000
x293x156x3                    1.000000
x240x210x1                    1.000000
x240x156x2                    1.000000
x276x178x2                    1.000000
x276x172x2                    1.000000
x284x0x2                      1.000000
x284x0x3                      1.000000
x141x48x1                     1.000000
x141x48x3                     1.000000
x300x0x1                      1.000000
x300x0x2                      1.000000
x224x0x1                      1.000000
x224x0x2                      1.000000
x81x210x3                     1.000000
x81x231x3                     1.000000
x49x23x1                      2.000000
x262x0x2                      1.000000
x262x0x3                      1.000000
x210x0x1                      1.000000
x210x0x3                      1.000000
x178x0x2                      1.000000
x178x0x3                      1.000000
x50x0x1                       2.000000
x172x0x2                      1.000000
x172x0x3                      1.000000
x231x0x3                      2.000000
x23x0x1                       2.000000
x261x0x1                      1.000000
x261x0x2                      1.000000
x156x0x2                      1.000000
x156x0x3                      1.000000
x48x0x1                       1.000000
x48x0x3                       1.000000
s281                          4.511970
s65                           6.807915
s161                          6.230756
s162                          6.935460
s194                          6.180000
z281z194z1                    1.000000
s53                           7.200000
s285                          6.930071
s111                          7.390000
z281z111z1                    1.000000
s112                          7.378246
s124                          6.878895
s52                           6.840000
s272                          6.940000
z281z272z1                    1.000000
s240                          7.568020
s85                           8.050000
z281z85z1                     1.000000
s190                          8.070000
s110                          7.170000
z281z110z1                    1.000000
s80                           7.180000
z281z80z1                     1.000000
s39                           8.200000
s141                          8.213433
s300                          8.310000
s193                          8.360000
z281z193z1                    1.000000
s166                          8.380000
z281z166z1                    1.000000
s187                          8.420000
z281z187z1                    1.000000
s96                           7.440000
z281z96z1                     1.000000
s224                          8.490000
s49                           7.590000
z281z49z1                     1.000000
s165                          8.620000
s213                          7.680000
z281z213z1                    1.000000
s287                          8.930000
z281z287z1                    1.000000
s210                          8.928082
s50                           8.614948
z281z50z1                     1.000000
s21                           9.160000
s101                          9.260000
z281z101z1                    1.000000
s23                           9.280000
z281z23z1                     1.000000
s261                          9.300000
s42                           9.340000
s48                           9.460000
s4                            4.467530
z4z161z1                      1.000000
z4z194z1                      1.000000
z4z111z1                      1.000000
z4z272z1                      1.000000
z4z85z1                       1.000000
z4z110z1                      1.000000
z4z80z1                       1.000000
z4z193z1                      1.000000
z4z166z1                      1.000000
z4z187z1                      1.000000
z4z96z1                       1.000000
z4z49z1                       1.000000
z4z213z1                      1.000000
z4z287z1                      1.000000
z4z50z1                       1.000000
z4z101z1                      1.000000
z4z23z1                       1.000000
s118                          4.772840
s44                           5.180000
s90                           5.710000
s116                          5.990000
z118z161z3                    1.000000
s146                          6.090000
s99                           7.117470
s142                          6.926040
s72                           6.927241
z118z72z3                     1.000000
s167                          7.520000
s191                          6.670000
z118z191z3                    1.000000
s115                          7.552923
z118z115z2                    1.000000
z118z124z2                    1.000000
s293                          7.730000
z118z293z3                    1.000000
s2                            6.780000
s125                          7.880000
z118z125z3                    1.000000
s196                          7.559461
z118z196z3                    1.000000
s222                          7.920000
s298                          7.970000
z118z298z2                    1.000000
s144                          7.980000
z118z144z2                    1.000000
s276                          7.457077
z118z276z2                    1.000000
s225                          8.010000
z118z225z2                    1.000000
s284                          8.130000
s256                          8.140000
z118z256z2                    1.000000
s220                          8.170000
z118z220z2                    1.000000
s106                          7.468301
z118z106z2                    1.000000
s20                           7.330000
z118z20z2                     1.000000
s248                          8.330000
s103                          7.430000
z118z103z2                    1.000000
s84                           7.560000
s81                           7.570000
z118z81z3                     1.000000
s301                          8.580000
s114                          7.650000
z118z114z2                    1.000000
s95                           7.850000
s262                          9.040000
s178                          8.594352
s172                          8.930000
s231                          9.250000
z118z231z3                    1.000000
s195                          9.310000
z118z195z2                    1.000000
s156                          9.330000
s9                            9.470000
z118z9z3                      1.000000
s109                          9.470000
z118z109z3                    1.000000
s121                          5.103250
z121z142z3                    1.000000
z121z72z3                     1.000000
z121z293z3                    1.000000
z121z81z3                     1.000000
z121z231z3                    1.000000
z121z9z3                      1.000000
z121z109z3                    1.000000
s100                          5.192310
z100z240z2                    1.000000
z100z256z2                    1.000000
z100z110z1                    1.000000
z100z106z2                    1.000000
z100z20z2                     1.000000
z100z193z1                    1.000000
z100z166z1                    1.000000
z100z187z1                    1.000000
z100z103z2                    1.000000
z100z96z1                     1.000000
z100z49z1                     1.000000
z100z114z2                    1.000000
z100z213z1                    1.000000
z100z287z1                    1.000000
z100z50z1                     1.000000
z100z101z1                    1.000000
z100z23z1                     1.000000
z100z195z2                    1.000000
s104                          5.026470
z104z285z2                    1.000000
z104z196z3                    1.000000
z104z298z2                    1.000000
z104z144z2                    1.000000
z104z276z2                    1.000000
z104z225z2                    1.000000
z104z256z2                    1.000000
z104z220z2                    1.000000
z104z106z2                    1.000000
z104z20z2                     1.000000
z104z103z2                    1.000000
z104z81z3                     1.000000
z104z114z2                    1.000000
z104z231z3                    1.000000
z104z195z2                    1.000000
z104z9z3                      1.000000
z104z109z3                    1.000000
s203                          5.199440
z203z65z1                     1.000000
z203z285z1                    1.000000
z203z272z1                    1.000000
z203z110z1                    1.000000
z203z193z1                    1.000000
z203z166z1                    1.000000
z203z187z1                    1.000000
z203z96z1                     1.000000
z203z49z1                     1.000000
z203z213z1                    1.000000
z203z287z1                    1.000000
z203z50z1                     1.000000
z203z101z1                    1.000000
z203z23z1                     1.000000
s14                           5.381860
z14z112z2                     1.000000
z14z196z3                     1.000000
z14z256z2                     1.000000
z14z106z2                     1.000000
z14z20z2                      1.000000
z14z103z2                     1.000000
z14z81z3                      1.000000
z14z114z2                     1.000000
z14z231z3                     1.000000
z14z195z2                     1.000000
z14z9z3                       1.000000
z14z109z3                     1.000000
s24                           5.184600
z24z65z1                      1.000000
z24z72z3                      1.000000
z24z110z1                     1.000000
z24z193z1                     1.000000
z24z166z1                     1.000000
z24z187z1                     1.000000
z24z96z1                      1.000000
z24z81z3                      1.000000
z24z49z1                      1.000000
z24z213z1                     1.000000
z24z287z1                     1.000000
z24z50z1                      1.000000
z24z231z3                     1.000000
z24z101z1                     1.000000
z24z23z1                      1.000000
z24z9z3                       1.000000
z24z109z3                     1.000000
s136                          5.347760
z136z142z2                    1.000000
z136z124z1                    1.000000
z136z272z1                    1.000000
z136z298z2                    1.000000
z136z144z2                    1.000000
z136z225z2                    1.000000
z136z256z2                    1.000000
z136z110z1                    1.000000
z136z220z2                    1.000000
z136z80z1                     1.000000
z136z106z2                    1.000000
z136z20z2                     1.000000
z136z193z1                    1.000000
z136z166z1                    1.000000
z136z187z1                    1.000000
z136z103z2                    1.000000
z136z96z1                     1.000000
z136z49z1                     1.000000
z136z114z2                    1.000000
z136z213z1                    1.000000
z136z287z1                    1.000000
z136z50z1                     1.000000
z136z101z1                    1.000000
z136z23z1                     1.000000
z136z195z2                    1.000000
s68                           5.701370
z68z115z2                     1.000000
z68z195z2                     1.000000
s168                          5.790300
z168z53z3                     1.000000
z168z293z3                    1.000000
z168z81z3                     1.000000
z168z231z3                    1.000000
z168z9z3                      1.000000
z168z109z3                    1.000000
s138                          5.911320
z138z240z1                    1.000000
z138z49z1                     1.000000
z138z287z1                    1.000000
z138z178z3                    1.000000
z138z50z1                     1.000000
z138z231z3                    1.000000
z138z101z1                    1.000000
z138z23z1                     1.000000
z138z9z3                      1.000000
z138z109z3                    1.000000
s206                          5.908180
z206z276z2                    1.000000
z206z220z2                    1.000000
z206z106z2                    1.000000
z206z114z2                    1.000000
z206z195z2                    1.000000
z44z231z3                     1.000000
z44z195z2                     1.000000
z44z9z3                       1.000000
z44z109z3                     1.000000
z90z103z2                     1.000000
z90z195z2                     1.000000
z65z141z1                     1.000000
z65z300z1                     1.000000
z65z101z1                     1.000000
z65z23z1                      1.000000
z116z231z3                    1.000000
z116z9z3                      1.000000
z116z109z3                    1.000000
z161z293z3                    1.000000
z161z49z1                     1.000000
z161z231z3                    1.000000
z161z101z1                    1.000000
z161z23z1                     1.000000
z161z9z3                      1.000000
z161z109z3                    1.000000
z162z231z3                    1.000000
z162z101z1                    1.000000
z162z23z1                     1.000000
z162z9z3                      1.000000
z162z109z3                    1.000000
z146z231z3                    1.000000
z146z9z3                      1.000000
z146z109z3                    1.000000
z99z231z3                     1.000000
z99z195z2                     1.000000
z99z9z3                       1.000000
z99z109z3                     1.000000
z194z53z1                     1.000000
z194z112z1                    1.000000
z194z101z1                    1.000000
z194z23z1                     1.000000
z53z224z1                     1.000000
z53z231z3                     1.000000
z53z101z1                     1.000000
z53z23z1                      1.000000
z53z9z3                       1.000000
z53z109z3                     1.000000
z285z50z1                     1.000000
z285z101z1                    1.000000
z285z23z1                     1.000000
z285z261z2                    1.000000
z285z195z2                    1.000000
z142z284z2                    1.000000
z142z262z3                    1.000000
z142z231z3                    1.000000
z142z195z2                    1.000000
z142z9z3                      1.000000
z142z109z3                    1.000000
z72z284z3                     1.000000
z72z141z3                     1.000000
z72z231z3                     1.000000
z72z9z3                       1.000000
z72z109z3                     1.000000
z111z101z1                    1.000000
z111z23z1                     1.000000
z167z231z3                    1.000000
z167z195z2                    1.000000
z167z9z3                      1.000000
z167z109z3                    1.000000
z112z224z2                    1.000000
z112z101z1                    1.000000
z112z23z1                     1.000000
z112z261z1                    1.000000
z112z195z2                    1.000000
z191z9z3                      1.000000
z191z109z3                    1.000000
z115z262z2                    1.000000
z115z195z2                    1.000000
z124z300z2                    1.000000
z124z50z1                     1.000000
z124z23z1                     1.000000
z124z195z2                    1.000000
z293z172z3                    1.000000
z293z156z3                    1.000000
z293z9z3                      1.000000
z293z109z3                    1.000000
z2z195z2                      1.000000
z2z9z3                        1.000000
z2z109z3                      1.000000
z52z101z1                     1.000000
z52z23z1                      1.000000
z52z9z3                       1.000000
z52z109z3                     1.000000
z125z9z3                      1.000000
z125z109z3                    1.000000
z196z231z3                    1.000000
z222z195z2                    1.000000
z222z9z3                      1.000000
z222z109z3                    1.000000
z272z50z1                     1.000000
z272z23z1                     1.000000
z240z210z1                    1.000000
z240z23z1                     1.000000
z240z156z2                    1.000000
z276z178z2                    1.000000
z276z172z2                    1.000000
z141z48z1                     1.000000
z141z48z3                     1.000000
z81z210z3                     1.000000
z81z231z3                     1.000000
z49z23z1                      1.000000
All other variables in the range 1-4874 are 0.
